words_hard_train/1128.qaiger
aag 135 24 0 1 111
2
4
12
14
18
20
32
34
46
48
60
62
74
76
88
90
150
152
156
160
164
176
180
190
271
6 2 5
8 3 4
10 7 9
16 12 14
22 19 21
24 18 20
26 23 25
28 16 26
30 29 25
36 33 35
38 32 34
40 37 39
42 31 40
44 43 39
50 47 49
52 46 48
54 51 53
56 45 54
58 57 53
64 61 63
66 60 62
68 65 67
70 59 68
72 71 67
78 75 77
80 74 76
82 79 81
84 73 82
86 85 81
92 89 91
94 88 90
96 93 95
98 87 96
100 99 95
102 11 101
104 10 100
106 103 105
108 17 27
110 109 29
112 13 15
114 113 17
116 111 115
118 30 41
120 119 43
122 116 121
124 44 55
126 125 57
128 122 127
130 58 69
132 131 71
134 128 133
136 72 83
138 137 85
140 134 139
142 86 97
144 143 99
146 140 145
148 106 146
154 150 152
158 155 157
162 158 161
166 162 165
168 163 164
170 167 169
172 127 151
174 173 123
178 121 176
182 110 181
184 120 177
186 183 185
188 27 180
192 114 191
194 189 192
196 186 195
198 179 197
200 174 198
202 126 150
204 201 203
206 204 129
208 129 132
210 209 135
212 151 153
214 213 155
216 210 214
218 207 217
220 211 215
222 219 221
224 135 138
226 225 141
228 154 156
230 229 159
232 226 231
234 223 233
236 227 230
238 235 237
240 159 160
242 241 163
244 141 144
246 245 147
248 243 246
250 239 249
252 242 247
254 251 253
256 170 254
258 149 257
260 171 255
262 107 147
264 261 263
266 258 265
268 148 256
270 267 269
i0 2 y1[7]
i1 2 y2[7]
i2 2 y1[0]
i3 2 y2[0]
i4 2 y1[1]
i5 2 y2[1]
i6 2 y1[2]
i7 2 y2[2]
i8 2 y1[3]
i9 2 y2[3]
i10 2 y1[4]
i11 2 y2[4]
i12 2 y1[5]
i13 2 y2[5]
i14 2 y1[6]
i15 2 y2[6]
i16 1 x2[4]
i17 1 x2[3]
i18 1 x2[2]
i19 1 x2[1]
i20 1 x2[0]
i21 1 x2[5]
i22 1 x2[6]
i23 1 x2[7]
o0 bv[0]
c
simplified
  <
    add
      reverse
        1 x2
      -24
    add
      2 y1
      2 y2
