words_hard_train/1128.qaiger.qdimacs
p cnf 135 334
a 75 76 78 80 82 88 90 95 0
e 1 2 3 4 5 6 7 8 9 10 11 12 13 14 15 16 17 18 19 20 21 22 23 24 25 26 27 28 29 30 31 32 33 34 35 36 37 38 39 40 41 42 43 44 45 46 47 48 49 50 51 52 53 54 55 56 57 58 59 60 61 62 63 64 65 66 67 68 69 70 71 72 73 74 77 79 81 83 84 85 86 87 89 91 92 93 94 96 97 98 99 100 101 102 103 104 105 106 107 108 109 110 111 112 113 114 115 116 117 118 119 120 121 122 123 124 125 126 127 128 129 130 131 132 133 134 135 0
-1 2 3 0
1 -3 0
-2 -3 0
1 -2 4 0
-1 -4 0
2 -4 0
3 4 5 0
-3 -5 0
-4 -5 0
-6 -7 8 0
6 -8 0
7 -8 0
9 10 11 0
-9 -11 0
-10 -11 0
-9 -10 12 0
9 -12 0
10 -12 0
11 12 13 0
-11 -13 0
-12 -13 0
-8 -13 14 0
8 -14 0
13 -14 0
14 12 15 0
-14 -15 0
-12 -15 0
16 17 18 0
-16 -18 0
-17 -18 0
-16 -17 19 0
16 -19 0
17 -19 0
18 19 20 0
-18 -20 0
-19 -20 0
15 -20 21 0
-15 -21 0
20 -21 0
21 19 22 0
-21 -22 0
-19 -22 0
23 24 25 0
-23 -25 0
-24 -25 0
-23 -24 26 0
23 -26 0
24 -26 0
25 26 27 0
-25 -27 0
-26 -27 0
22 -27 28 0
-22 -28 0
27 -28 0
28 26 29 0
-28 -29 0
-26 -29 0
30 31 32 0
-30 -32 0
-31 -32 0
-30 -31 33 0
30 -33 0
31 -33 0
32 33 34 0
-32 -34 0
-33 -34 0
29 -34 35 0
-29 -35 0
34 -35 0
35 33 36 0
-35 -36 0
-33 -36 0
37 38 39 0
-37 -39 0
-38 -39 0
-37 -38 40 0
37 -40 0
38 -40 0
39 40 41 0
-39 -41 0
-40 -41 0
36 -41 42 0
-36 -42 0
41 -42 0
42 40 43 0
-42 -43 0
-40 -43 0
44 45 46 0
-44 -46 0
-45 -46 0
-44 -45 47 0
44 -47 0
45 -47 0
46 47 48 0
-46 -48 0
-47 -48 0
43 -48 49 0
-43 -49 0
48 -49 0
49 47 50 0
-49 -50 0
-47 -50 0
5 50 51 0
-5 -51 0
-50 -51 0
-5 -50 52 0
5 -52 0
50 -52 0
51 52 53 0
-51 -53 0
-52 -53 0
8 13 54 0
-8 -54 0
-13 -54 0
54 14 55 0
-54 -55 0
-14 -55 0
6 7 56 0
-6 -56 0
-7 -56 0
56 8 57 0
-56 -57 0
-8 -57 0
55 57 58 0
-55 -58 0
-57 -58 0
-15 20 59 0
15 -59 0
-20 -59 0
59 21 60 0
-59 -60 0
-21 -60 0
-58 60 61 0
58 -61 0
-60 -61 0
-22 27 62 0
22 -62 0
-27 -62 0
62 28 63 0
-62 -63 0
-28 -63 0
-61 63 64 0
61 -64 0
-63 -64 0
-29 34 65 0
29 -65 0
-34 -65 0
65 35 66 0
-65 -66 0
-35 -66 0
-64 66 67 0
64 -67 0
-66 -67 0
-36 41 68 0
36 -68 0
-41 -68 0
68 42 69 0
-68 -69 0
-42 -69 0
-67 69 70 0
67 -70 0
-69 -70 0
-43 48 71 0
43 -71 0
-48 -71 0
71 49 72 0
-71 -72 0
-49 -72 0
-70 72 73 0
70 -73 0
-72 -73 0
-53 -73 74 0
53 -74 0
73 -74 0
-75 -76 77 0
75 -77 0
76 -77 0
77 78 79 0
-77 -79 0
-78 -79 0
-79 80 81 0
79 -81 0
-80 -81 0
-81 82 83 0
81 -83 0
-82 -83 0
81 -82 84 0
-81 -84 0
82 -84 0
83 84 85 0
-83 -85 0
-84 -85 0
63 75 86 0
-63 -86 0
-75 -86 0
86 61 87 0
-86 -87 0
-61 -87 0
60 -88 89 0
-60 -89 0
88 -89 0
-55 90 91 0
55 -91 0
-90 -91 0
-60 88 92 0
60 -92 0
-88 -92 0
91 92 93 0
-91 -93 0
-92 -93 0
13 -90 94 0
-13 -94 0
90 -94 0
-57 95 96 0
57 -96 0
-95 -96 0
94 -96 97 0
-94 -97 0
96 -97 0
-93 97 98 0
93 -98 0
-97 -98 0
89 98 99 0
-89 -99 0
-98 -99 0
-87 -99 100 0
87 -100 0
99 -100 0
-63 -75 101 0
63 -101 0
75 -101 0
100 101 102 0
-100 -102 0
-101 -102 0
-102 64 103 0
102 -103 0
-64 -103 0
64 -66 104 0
-64 -104 0
66 -104 0
104 67 105 0
-104 -105 0
-67 -105 0
75 76 106 0
-75 -106 0
-76 -106 0
106 77 107 0
-106 -107 0
-77 -107 0
-105 -107 108 0
105 -108 0
107 -108 0
103 108 109 0
-103 -109 0
-108 -109 0
105 107 110 0
-105 -110 0
-107 -110 0
109 110 111 0
-109 -111 0
-110 -111 0
67 -69 112 0
-67 -112 0
69 -112 0
112 70 113 0
-112 -113 0
-70 -113 0
-77 -78 114 0
77 -114 0
78 -114 0
114 79 115 0
-114 -115 0
-79 -115 0
-113 115 116 0
113 -116 0
-115 -116 0
111 116 117 0
-111 -117 0
-116 -117 0
113 -115 118 0
-113 -118 0
115 -118 0
117 118 119 0
-117 -119 0
-118 -119 0
79 -80 120 0
-79 -120 0
80 -120 0
120 81 121 0
-120 -121 0
-81 -121 0
70 -72 122 0
-70 -122 0
72 -122 0
122 73 123 0
-122 -123 0
-73 -123 0
121 -123 124 0
-121 -124 0
123 -124 0
119 124 125 0
-119 -125 0
-124 -125 0
-121 123 126 0
121 -126 0
-123 -126 0
125 126 127 0
-125 -127 0
-126 -127 0
-85 -127 128 0
85 -128 0
127 -128 0
74 128 129 0
-74 -129 0
-128 -129 0
85 127 130 0
-85 -130 0
-127 -130 0
53 73 131 0
-53 -131 0
-73 -131 0
130 131 132 0
-130 -132 0
-131 -132 0
-129 132 133 0
129 -133 0
-132 -133 0
-74 -128 134 0
74 -134 0
128 -134 0
133 134 135 0
-133 -135 0
-134 -135 0
-135 0
